NAME: concorde8
TYPE: TSP
RUN_TIME: 0.015
DISTANCE: 311
COMMENT: Solution by max williams
DIMENSION: 8
EDGE_WEIGHT_TYPE: EUC_2D
NODE_COORD_SECTION
1 87.951294 2.658162
6 20.032350 2.761925
8 41.059605 32.578510
4 20.526749 47.633290
5 9.006012 81.185340
2 33.466600 66.682945
3 91.778310 53.807182
7 77.181310 31.922361
